memory total 1000 mb
geometry units angstroms
 N 0.0 0.0 0.0
 N 0.0 0.0 1.1
end

title "N2 scf optimize"
charge 0
basis
 N library "6-311+G*"
end

task scf optimize

title "N2 scf freq"
charge 0
basis
 N library "6-311+G*"
end

task scf freq

title "N2 dft energy"
charge 0
basis
 N library "6-311+G*"
end
dft
 mult 1
 xc b3lyp
end
task dft energy
