 &CONTROL
  calculation = 'vc-relax' ,
  outdir = './tmp' ,
  prefix = 'Au_fcc',
  pseudo_dir = './' ,
  tprnfor = .True.,
  tstress = .True.,
 /
 &SYSTEM
  ibrav = 2,
  celldm(1) = {alat},
  nat = 1,
  ntyp = 1,
  ecutwfc = 50,
  ecutrho = 250,
  occupations = 'smearing',
  smearing = 'cold',
  degauss = 0.025,
 /
 &ELECTRONS
  diagonalization = 'david',
  conv_thr = 1.D-8,
  mixing_beta = 0.7,
 /
 &IONS
  ion_dynamics = 'bfgs',
 /
 &CELL
  cell_dynamics = 'bfgs',
 /
ATOMIC_SPECIES
   Au   196.97  Au.pbe-dn-rrkjus_psl.0.1.UPF
ATOMIC_POSITIONS crystal 
   Au      0.000000000    0.000000000    0.000000000    
K_POINTS automatic 
  {k} {k} {k}   0 0 0 

