 &CONTROL
  calculation = 'relax' ,
  outdir = './tmp' ,
  prefix = 'Al_111_absor_{site}',
  pseudo_dir = './' ,
  tprnfor = .True.,
  tstress = .True.,
 /
 &SYSTEM
  ibrav = 4,
  celldm(1) = 10.782,
  celldm(3) = 6.12372435695,
  nat = 37,
  ntyp = 2,
  ecutwfc = 30,
  ecutrho = 150,
  occupations = 'smearing',
  smearing = 'cold',
  degauss = 0.025,
 /
 &ELECTRONS
  diagonalization = 'david',
  conv_thr = 3.7e-05,
  mixing_beta = 0.3,
  mixing_mode = 'local-TF'
 /
 &IONS
  ion_dynamics = 'bfgs',
 /
ATOMIC_SPECIES
  Al   26.98   Al.pbe-n-van.UPF
  H    1.008   H.pbe-rrkjus.UPF  
ATOMIC_POSITIONS crystal 
  Al 0.3333335 0.166667 0.666700354
  Al 0.3333335 0.666667 0.666700354
  Al 0.8333335 0.166667 0.666700354
  Al 0.8333335 0.666667 0.666700354
  Al 0.1666665 0.333333 0.933085256
  Al 0.1666665 0.833333 0.933085256
  Al 0.6666665 0.333333 0.933085256
  Al 0.6666665 0.833333 0.933085256
  Al 0.0 0.0 0.799966246
  Al 0.0 0.5 0.799966246
  Al 0.5 0.0 0.799966246
  Al 0.5 0.5 0.799966246
  Al 0.0 0.0 0.599895851
  Al 0.0 0.5 0.599895851
  Al 0.5 0.0 0.599895851
  Al 0.5 0.5 0.599895851
  Al 0.1666665 0.333333 0.7333334
  Al 0.1666665 0.833333 0.7333334
  Al 0.6666665 0.333333 0.7333334
  Al 0.6666665 0.833333 0.7333334
  Al 0.3333335 0.166667 0.866770749
  Al 0.3333335 0.666667 0.866770749
  Al 0.8333335 0.166667 0.866770749
  Al 0.8333335 0.666667 0.866770749
  Al 0.3333335 0.166667 0.466455144
  Al 0.3333335 0.666667 0.466455144
  Al 0.8333335 0.166667 0.466455144
  Al 0.8333335 0.666667 0.466455144
  Al 0.0 0.0 0.000211456
  Al 0.0 0.5 0.000211456
  Al 0.5 0.0 0.000211456
  Al 0.5 0.5 0.000211456
  Al 0.1666665 0.333333 0.533581544
  Al 0.1666665 0.833333 0.533581544
  Al 0.6666665 0.333333 0.533581544
  Al 0.6666665 0.833333 0.533581544
  H  {h_coords} 0.05  
K_POINTS Automatic 
  8 8 1  0 0 0
