 &CONTROL
  calculation = 'relax' ,
  outdir = './tmp' ,
  prefix = 'H2',
  pseudo_dir = './' ,
  tprnfor = .True.,
  tstress = .True.,
 /
 &SYSTEM
  ibrav = 1,
  celldm(1) = {alat},
  nat = 2,
  ntyp = 1,
  ecutwfc = 30,
  ecutrho = 150,
  occupations = 'smearing',
  smearing = 'cold',
  degauss = 0.025,
 /
 &ELECTRONS
  diagonalization = 'david',
  conv_thr = 1.D-8,
  mixing_beta = 0.7,
 /
 &IONS
  ion_dynamics = 'bfgs',
 /
ATOMIC_SPECIES
   H   1.008   H.pbe-rrkjus.UPF
ATOMIC_POSITIONS crystal 
   H   0.0   0.0   0.0
   H   0.0   0.0   {c}    
K_POINTS automatic 
  1 1 1 0 0 0 

